% seed = 9484905

mint = 29;
% maxt = 87;

nActs = 22;
dur = [0,8,7,5,9,1,4,4,6,1,4,2,4,4,3,7,1,3,2,8,4,0];

nSkills = 4;
sreq = [| 0,0,0,0,
	| 1,0,2,2,
	| 3,0,2,3,
	| 1,2,3,1,
	| 2,2,3,1,
	| 3,2,0,0,
	| 3,0,0,2,
	| 3,2,0,0,
	| 1,3,3,1,
	| 2,3,0,3,
	| 0,1,2,3,
	| 1,2,1,2,
	| 3,0,1,0,
	| 3,0,0,1,
	| 3,3,0,0,
	| 1,1,0,3,
	| 0,3,3,0,
	| 3,1,2,0,
	| 0,2,3,2,
	| 3,0,2,3,
	| 0,1,2,0,
	| 0,0,0,0, |];

nResources = 10;
mastery = [| true,false,true,true,
	| false,true,false,true,
	| true,true,false,false,
	| false,true,true,false,
	| false,true,false,false,
	| true,false,true,true,
	| false,true,false,false,
	| true,true,false,false,
	| true,false,false,false,
	| true,true,true,false, |];

nPrecs = 43;
pred = [1,1,1,2,2,2,3,3,3,4,4,4,5,6,6,6,7,7,7,8,9,9,9,10,10,11,11,11,12,13,13,14,14,14,15,16,17,17,18,18,19,20,21];
succ = [2,3,4,9,12,6,17,14,7,21,12,5,10,10,11,7,19,16,8,18,17,10,13,20,15,17,13,14,15,20,16,18,15,16,19,21,18,19,20,21,22,22,22];

nUnrels = 91;
unpred = [2,2,2,3,3,3,3,3,3,3,3,4,4,4,4,4,4,4,4,4,4,5,5,5,5,5,5,5,5,5,5,5,5,6,6,7,7,7,7,7,7,7,7,8,8,8,8,8,8,8,8,8,8,9,9,9,10,10,10,10,10,10,10,10,11,12,12,12,12,12,12,12,13,13,13,13,13,14,15,15,15,15,15,16,16,16,16,18,19,19,20];
unsucc = [3,4,5,4,5,6,9,10,11,12,13,6,7,8,9,11,13,14,16,17,18,6,7,8,9,11,12,13,14,16,17,18,21,9,12,9,10,11,12,13,14,15,17,9,10,11,12,13,14,15,16,17,19,11,12,14,11,12,13,14,16,17,18,21,12,13,14,16,17,18,20,21,14,15,17,18,19,17,16,17,18,20,21,17,18,19,20,19,20,21,21];

USEFUL_RES = [{},
	{1,2,3,4,6,8,9,10},
	{1,2,3,4,6,8,9,10},
	{1,2,3,4,5,6,7,8,9,10},
	{1,2,3,4,5,6,7,8,9,10},
	{1,2,3,4,5,6,7,8,9,10},
	{1,2,3,6,8,9,10},
	{1,2,3,4,5,6,7,8,9,10},
	{1,2,3,4,5,6,7,8,9,10},
	{1,2,3,4,5,6,7,8,9,10},
	{1,2,3,4,5,6,7,8,10},
	{1,2,3,4,5,6,7,8,9,10},
	{1,3,4,6,8,9,10},
	{1,2,3,6,8,9,10},
	{1,2,3,4,5,6,7,8,9,10},
	{1,2,3,4,5,6,7,8,9,10},
	{1,2,3,4,5,6,7,8,10},
	{1,2,3,4,5,6,7,8,9,10},
	{1,2,3,4,5,6,7,8,10},
	{1,2,3,4,6,8,9,10},
	{1,2,3,4,5,6,7,8,10},
	{}];

POTENTIAL_ACT = [{2,3,4,5,6,7,8,9,10,11,12,13,14,15,16,17,18,19,20,21},
	{2,3,4,5,6,7,8,9,10,11,12,14,15,16,17,18,19,20,21},
	{2,3,4,5,6,7,8,9,10,11,12,13,14,15,16,17,18,19,20,21},
	{2,3,4,5,6,8,9,10,11,12,13,15,16,17,18,19,20,21},
	{4,5,6,8,9,10,11,12,15,16,17,18,19,21},
	{2,3,4,5,6,7,8,9,10,11,12,13,14,15,16,17,18,19,20,21},
	{4,5,6,8,9,10,11,12,15,16,17,18,19,21},
	{2,3,4,5,6,7,8,9,10,11,12,13,14,15,16,17,18,19,20,21},
	{2,3,4,5,6,7,8,9,10,12,13,14,15,16,18,20},
	{2,3,4,5,6,7,8,9,10,11,12,13,14,15,16,17,18,19,20,21}];
